     Program PWSCF v.6.5 starts on  7Jul2021 at 19:18:40

     R & G space division:  proc/nbgrp/npool/nimage =      64
     Waiting for input...
     Reading input from standard input

     Current dimensions of program PWSCF are:
     Max number of different atomic species (ntypx) = 10
     Max number of k-points (npk) =  40000
     Max angular momentum in pseudopotentials (lmaxx) =  3
               file C.pbe-rrkjus.UPF: wavefunction(s)  2S 2P renormalized
               file Co.pbe-nd-rrkjus.UPF: wavefunction(s)  4S 3D renormalized
               file H.pbe-rrkjus.UPF: wavefunction(s)  1S renormalized
               file N.pbe-rrkjus.UPF: wavefunction(s)  2S renormalized
               file O.pbe-rrkjus.UPF: wavefunction(s)  2S renormalized

     Parameters for DFT-D3 Dispersion Correction:
       Reference C6 values for interpolation:

         atom   Coordination number   C6
         H          0.912             6.05
         H          0.000            15.18
         C          0.000            98.23
         C          0.987            86.49
         C          1.998            58.72
         C          2.999            51.56
         C          3.984            36.41
         N          0.000            50.54
         N          0.994            44.25
         N          2.014            39.35
         N          2.990            31.16
         O          0.000            31.01
         O          0.993            25.63
         O          1.989            20.74
         Co         0.000          1065.56
         Co         1.715           373.09
         Co         2.926           296.13
         Co         7.779           236.57

       Values used:

         atom   Coordination number  R0_AB[au]  C6      C8
         H          0.999            2.062      6.18     74.74
         H          0.997            2.062      6.18     74.75
         H          1.002            2.062      6.18     74.70
         H          1.003            2.062      6.18     74.68
         C          4.083            2.750     36.54   1056.74
         C          3.313            2.750     48.31   1397.31
         N          3.090            2.478     31.24    689.18
         C          3.175            2.750     50.31   1455.04
         O          1.104            2.345     25.44    513.43
         H          1.002            2.062      6.18     74.69
         H          0.998            2.062      6.18     74.74
         C          4.340            2.750     36.43   1053.62
         O          1.980            2.345     20.83    420.39
         C          3.140            2.750     50.61   1463.77
         H          0.999            2.062      6.18     74.73
         Co         5.097            3.243    296.13  26037.34
         N          5.203            2.478     31.16    687.49
         C          3.164            2.750     50.42   1458.16
         C          3.200            2.750     50.06   1447.88
         C          5.054            2.750     36.41   1053.14
         C          4.020            2.750     36.62   1059.02
         H          1.003            2.062      6.18     74.69
         C          3.161            2.750     50.44   1458.75
         H          0.998            2.062      6.18     74.75
         H          0.998            2.062      6.18     74.75
         H          0.998            2.062      6.18     74.74
         H          1.346            2.062      6.06     73.30
         N          5.343            2.478     31.16    687.49
         C          4.020            2.750     36.62   1059.03
         H          0.998            2.062      6.18     74.74
         O          1.984            2.345     20.83    420.33
         O          3.480            2.345     20.74    418.58
         O          1.083            2.345     25.48    514.27
         O          1.234            2.345     25.05    505.50
         H          0.998            2.062      6.18     74.74

         Molecular C6 ( Ry / a.u.^6 ) =     28557.86

     gamma-point specific algorithms are used

     Subspace diagonalization in iterative solution of the eigenvalue problem:
     a serial algorithm will be used

     bravais-lattice index     =           14
     lattice parameter (alat)  =      22.6767  a.u.
     unit-cell volume          =   11661.1195 (a.u.)^3
     number of atoms/cell      =           35
     number of atomic types    =            5
     number of electrons       =       118.00
     number of Kohn-Sham states=           71
     kinetic-energy cutoff     =      30.0000  Ry
     charge density cutoff     =     300.0000  Ry
     convergence threshold     =      1.0E-06
     mixing beta               =       0.4000
     number of iterations used =            8  local-TF  mixing
     Exchange-correlation=  SLA  PW   PBE  PBE
                           (   1   4   3   4   0   0   0)
     nstep                     =          600

     celldm(1)=  22.676712  celldm(2)=   1.000000  celldm(3)=   1.000000
     celldm(4)=   0.000000  celldm(5)=   0.000000  celldm(6)=   0.000000

     crystal axes: (cart. coord. in units of alat)
               a(1) = (   1.000000   0.000000   0.000000 )
               a(2) = (   0.000000   1.000000   0.000000 )
               a(3) = (   0.000000   0.000000   1.000000 )

     reciprocal axes: (cart. coord. in units 2 pi/alat)
               b(1) = (  1.000000 -0.000000 -0.000000 )
               b(2) = (  0.000000  1.000000 -0.000000 )
               b(3) = (  0.000000  0.000000  1.000000 )

     PseudoPot. # 1 for C  read from file:
     /public1/home/sc50649/pseudo/C.pbe-rrkjus.UPF
     MD5 check sum: 00fb224312de0c5b6853bd333518df6f
     Pseudo is Ultrasoft, Zval =  4.0
     Generated by new atomic code, or converted to UPF format
     Using radial grid of  627 points,  4 beta functions with:
                l(1) =   0
                l(2) =   0
                l(3) =   1
                l(4) =   1
     Q(r) pseudized with 0 coefficients

     PseudoPot. # 2 for Co read from file:
     /public1/home/sc50649/pseudo/Co.pbe-nd-rrkjus.UPF
     MD5 check sum: 3e47a84addf5e975e0edeaeee2a73f59
     Pseudo is Ultrasoft + core correction, Zval =  9.0
     Generated by new atomic code, or converted to UPF format
     Using radial grid of  961 points,  6 beta functions with:
                l(1) =   0
                l(2) =   0
                l(3) =   1
                l(4) =   1
                l(5) =   2
                l(6) =   2
     Q(r) pseudized with 0 coefficients

     PseudoPot. # 3 for H  read from file:
     /public1/home/sc50649/pseudo/H.pbe-rrkjus.UPF
     MD5 check sum: 7cc9d459525c9a0585f487a71c3c9563
     Pseudo is Ultrasoft, Zval =  1.0
     Generated by new atomic code, or converted to UPF format
     Using radial grid of 1061 points,  2 beta functions with:
                l(1) =   0
                l(2) =   0
     Q(r) pseudized with 0 coefficients

     PseudoPot. # 4 for N  read from file:
     /public1/home/sc50649/pseudo/N.pbe-rrkjus.UPF
     MD5 check sum: 0c3fbe5807a93f9ba59d5a7019aa238b
     Pseudo is Ultrasoft, Zval =  5.0
     Generated by new atomic code, or converted to UPF format
     Using radial grid of 1257 points,  4 beta functions with:
                l(1) =   0
                l(2) =   0
                l(3) =   1
                l(4) =   1
     Q(r) pseudized with 0 coefficients

     PseudoPot. # 5 for O  read from file:
     /public1/home/sc50649/pseudo/O.pbe-rrkjus.UPF
     MD5 check sum: 390ba29e75625707450f3bd3f0eb6be9
     Pseudo is Ultrasoft, Zval =  6.0
     Generated by new atomic code, or converted to UPF format
     Using radial grid of 1269 points,  4 beta functions with:
                l(1) =   0
                l(2) =   0
                l(3) =   1
                l(4) =   1
     Q(r) pseudized with 0 coefficients

     atomic species   valence    mass     pseudopotential
        C              4.00    12.01000     C ( 1.00)
        Co             9.00    58.93300     Co( 1.00)
        H              1.00     1.00794     H ( 1.00)
        N              5.00    14.00670     N ( 1.00)
        O              6.00    15.99940     O ( 1.00)

     Starting magnetic structure
     atomic species   magnetization
        C            0.500
        Co           0.500
        H            0.500
        N            0.500
        O            0.500

     No symmetry found

   Cartesian axes

     site n.     atom                  positions (alat units)
         1           H   tau(   1) = (   0.2017100   0.4239100   0.3836100  )
         2           H   tau(   2) = (   0.1114600   0.5409700   0.4102300  )
         3           H   tau(   3) = (   0.2010600   0.7073300   0.4271000  )
         4           H   tau(   4) = (   0.3344000   0.8848400   0.4315000  )
         5           C   tau(   5) = (   0.1792400   0.4891700   0.4434200  )
         6           C   tau(   6) = (   0.2744400   0.6633300   0.4583000  )
         7           N   tau(   7) = (   0.2775200   0.5551700   0.4689900  )
         8           C   tau(   8) = (   0.3973500   0.8327100   0.4708500  )
         9           O   tau(   9) = (   0.6078600   0.4450200   0.4716400  )
        10           H   tau(  10) = (   0.5225800   0.9612000   0.4815900  )
        11           H   tau(  11) = (   0.3342100   0.1480500   0.4887600  )
        12           C   tau(  12) = (   0.3740600   0.7206700   0.4908100  )
        13           O   tau(  13) = (   0.3764200   0.3489400   0.4994300  )
        14           C   tau(  14) = (   0.5012500   0.8748100   0.4996300  )
        15           H   tau(  15) = (   0.1518500   0.4477200   0.5202700  )
        16           Co  tau(  16) = (   0.4063400   0.4983700   0.5371300  )
        17           N   tau(  17) = (   0.4495000   0.6510800   0.5413000  )
        18           C   tau(  18) = (   0.5778700   0.8036800   0.5506800  )
        19           C   tau(  19) = (   0.6010000   0.4148700   0.5709700  )
        20           C   tau(  20) = (   0.5490800   0.6933000   0.5712200  )
        21           C   tau(  21) = (   0.3122100   0.1769000   0.5725900  )
        22           H   tau(  22) = (   0.6602400   0.8331800   0.5746700  )
        23           C   tau(  23) = (   0.3187100   0.3026600   0.5790200  )
        24           H   tau(  24) = (   0.7642400   0.3388600   0.5869700  )
        25           H   tau(  25) = (   0.2293400   0.1468500   0.5965600  )
        26           H   tau(  26) = (   0.6476300   0.2504800   0.6105400  )
        27           H   tau(  27) = (   0.6057200   0.6355700   0.6119200  )
        28           N   tau(  28) = (   0.4113800   0.6710600   0.6162500  )
        29           C   tau(  29) = (   0.6813400   0.3345800   0.6247800  )
        30           H   tau(  30) = (   0.3731100   0.1428400   0.6320000  )
        31           O   tau(  31) = (   0.5188100   0.4470500   0.6346400  )
        32           O   tau(  32) = (   0.5029100   0.6449700   0.6503100  )
        33           O   tau(  33) = (   0.2744800   0.3577600   0.6551100  )
        34           O   tau(  34) = (   0.3190700   0.6727300   0.6574400  )
[...]
C             0.2745611137        0.6633697828        0.4579850546
N             0.2775078573        0.5551441595        0.4687083203
C             0.3969168849        0.8322661294        0.4707531846
O             0.6078367231        0.4450131329        0.4716284971
H             0.5226103601        0.9611767313        0.4815591127
H             0.3341979430        0.1480366689        0.4887646565
C             0.3722308392        0.7227623519        0.4864258027
O             0.3764002344        0.3488212455        0.4994102600
C             0.5018850579        0.8746800674        0.4998845475
H             0.1518517260        0.4477221001        0.5202793932
Co            0.4061347926        0.4972727770        0.5366062660
N             0.4512896784        0.6479561003        0.5195468624
C             0.5776491749        0.8051440146        0.5505894796
C             0.6010310471        0.4148154734        0.5709588218
C             0.5537165133        0.6936386451        0.5689125882
C             0.3122101264        0.1769040330        0.5725956684
H             0.6602275798        0.8331161722        0.5746496436
C             0.3186791198        0.3026388703        0.5790472504
H             0.7642372355        0.3388788178        0.5869618649
H             0.2293485763        0.1468637087        0.5965705351
H             0.6476491203        0.2504765762        0.6105476230
H             0.6082562331        0.6350660381        0.6102558896
N             0.4016959788        0.6745623820        0.6311404515
C             0.6813395761        0.3345850094        0.6247593171
H             0.3730948780        0.1428264052        0.6320037404
O             0.5188554355        0.4468471642        0.6345913782
O             0.5068290221        0.6435731643        0.6651656058
O             0.2745017175        0.3577422361        0.6551000572
O             0.3177615320        0.6725120853        0.6589112377
H             0.6853641749        0.3478844398        0.7150208917

     Writing output data file ./tmp/NO2.save/
     NEW-OLD atomic charge density approx. for the potential

[...]

     energy   old            =    -465.2690334397 Ry
     energy   new            =    -466.1227432385 Ry

     CASE: energy  _new < energy  _old

[...]

     iteration #  1     ecut=    30.00 Ry     beta= 0.40
     Davidson diagonalization with overlap
     c_bands:  1 eigenvalues not converged
     c_bands:  2 eigenvalues not converged
     ethr =  1.00E-06,  avg # of iterations = 20.0

[...]

     iteration #  6     ecut=    30.00 Ry     beta= 0.40
     Davidson diagonalization with overlap
     c_bands:  1 eigenvalues not converged
     ethr =  1.06E-05,  avg # of iterations = 10.5

[...]

     CASE: energy  _new > energy  _old

[...]

     WARNING: bfgs curvature condition failed, Theta= 0.963
     new trust radius        =       0.0648751068 bohr
     new conv_thr            =       0.0000000472 Ry

[...]

     Threshold (ethr) on eigenvalues was too large:
     Diagonalizing with lowered threshold

     Davidson diagonalization with overlap
     ethr =  8.96E-08,  avg # of iterations =  2.0

[...]

     WARNING: bfgs curvature condition failed, Theta= 0.758
     new trust radius        =       0.0506409786 bohr
     new conv_thr            =       0.0000000133 Ry

[...]

     Total force =     0.011694     Total SCF correction =     0.002819
     SCF correction compared to forces is large: reduce conv_thr to get better values

[...]

     number of scf cycles    = 133
     number of bfgs steps    = 131

     energy   old            =    -466.9333458752 Ry
     energy   new            =    -466.9333802835 Ry

     CASE: energy  _new < energy  _old

     new trust radius        =       0.0091456343 bohr
     new conv_thr            =       0.0000000100 Ry

ATOMIC_POSITIONS (crystal)
H             0.2198568600        0.4085154499        0.4027083979
H             0.1394467908        0.5326916986        0.3780564691
H             0.2403179121        0.6895818269        0.3750456305
H             0.3585717481        0.8715588687        0.3837489708
C             0.1920675781        0.4880008628        0.4381914640
C             0.3021392397        0.6523683485        0.4309348316
N             0.2896749367        0.5523505414        0.4688176518
C             0.4172729991        0.8275965784        0.4372191427
O             0.5667270544        0.4596710944        0.4765188257
H             0.5278147706        0.9676339396        0.4594403110
H             0.2938167534        0.1378887615        0.5052967960
C             0.3984672037        0.7162401166        0.4658088907
O             0.3797595826        0.3339353470        0.5051963784
C             0.5113089449        0.8806041550        0.4794746746
H             0.1449322917        0.4697403888        0.5144697543
Co            0.4011201952        0.4915316410        0.5672792838
N             0.4691345995        0.6593546723        0.5323014762
C             0.5836599036        0.8209705561        0.5481318909
C             0.5944901011        0.4237395808        0.5714593079
C             0.5592928039        0.7100219868        0.5726014671
C             0.2887224165        0.1755267705        0.5883250620
H             0.6579612791        0.8596324138        0.5830306607
C             0.3158112497        0.2978786846        0.5839571928
H             0.7667015900        0.3979005287        0.5314415854
H             0.2059301313        0.1626904682        0.6246383270
H             0.6959264058        0.2793419133        0.5855508209
H             0.6122440249        0.6601187768        0.6269355751
N             0.3466405799        0.5805545094        0.7005811974
C             0.7053898883        0.3701466629        0.5931305956
H             0.3499483728        0.1344094744        0.6426967423
O             0.5242427372        0.4320631152        0.6529356022
O             0.4146821423        0.6053768928        0.7734559959
O             0.2792677510        0.3648491162        0.6559686537
O             0.2465682442        0.6053198368        0.7019978978
H             0.7338309182        0.3887044210        0.6779124764

     Writing output data file ./tmp/NO2.save/
     NEW-OLD atomic charge density approx. for the potential

     Check: negative core charge=   -0.000007

     Self-consistent Calculation

[...]

     Threshold (ethr) on eigenvalues was too large:
     Diagonalizing with lowered threshold

     Davidson diagonalization with overlap
     ethr =  9.81E-08,  avg # of iterations =  1.0

[...]

     total energy              =    -466.93340535 Ry
     Harris-Foulkes estimate   =    -466.93340533 Ry
     estimated scf accuracy    <       0.00000002 Ry

[...]

     iteration # 10     ecut=    30.00 Ry     beta= 0.40
     Davidson diagonalization with overlap
     ethr =  1.34E-11,  avg # of iterations =  2.0

     Magnetic moment per site:
     atom:    1    charge:    0.4256    magn:    0.0001    constr:    0.0000
     atom:    2    charge:    0.2451    magn:   -0.0001    constr:    0.0000
     atom:    3    charge:    0.0890    magn:   -0.0007    constr:    0.0000
     atom:    4    charge:    0.1746    magn:    0.0000    constr:    0.0000
     atom:    5    charge:    0.8091    magn:   -0.0004    constr:    0.0000
     atom:    6    charge:    0.5403    magn:   -0.0088    constr:    0.0000
     atom:    7    charge:    1.2719    magn:    0.0017    constr:    0.0000
     atom:    8    charge:    0.5564    magn:   -0.0008    constr:    0.0000
     atom:    9    charge:    1.5474    magn:    0.0372    constr:    0.0000
     atom:   10    charge:    0.4964    magn:   -0.0000    constr:    0.0000
     atom:   11    charge:    0.1877    magn:    0.0004    constr:    0.0000
     atom:   12    charge:    0.6006    magn:   -0.0007    constr:    0.0000
     atom:   13    charge:    2.6714    magn:    0.0406    constr:    0.0000
     atom:   14    charge:    0.7359    magn:   -0.0007    constr:    0.0000
     atom:   15    charge:    0.3612    magn:    0.0002    constr:    0.0000
     atom:   16    charge:    5.5977    magn:    1.3861    constr:    0.0000
     atom:   17    charge:    1.1228    magn:    0.0319    constr:    0.0000
     atom:   18    charge:    0.8222    magn:    0.0008    constr:    0.0000
     atom:   19    charge:    0.7876    magn:   -0.0015    constr:    0.0000
     atom:   20    charge:    0.7971    magn:    0.0004    constr:    0.0000
     atom:   21    charge:    0.7078    magn:    0.0002    constr:    0.0000
     atom:   22    charge:    0.4645    magn:    0.0002    constr:    0.0000
     atom:   23    charge:    0.8176    magn:   -0.0017    constr:    0.0000
     atom:   24    charge:    0.3103    magn:   -0.0000    constr:    0.0000
     atom:   25    charge:    0.5283    magn:    0.0004    constr:    0.0000
     atom:   26    charge:    0.0768    magn:   -0.0000    constr:    0.0000
     atom:   27    charge:    0.3498    magn:    0.0011    constr:    0.0000
     atom:   28    charge:    0.0614    magn:   -0.0004    constr:    0.0000
     atom:   29    charge:    0.4924    magn:    0.0000    constr:    0.0000
     atom:   30    charge:    0.3423    magn:   -0.0001    constr:    0.0000
     atom:   31    charge:    2.4150    magn:   -0.0104    constr:    0.0000
     atom:   32    charge:    0.0757    magn:    0.0001    constr:    0.0000
     atom:   33    charge:    2.9091    magn:    0.0667    constr:    0.0000
     atom:   34    charge:    0.1188    magn:    0.0001    constr:    0.0000
     atom:   35    charge:    0.0587    magn:    0.0001    constr:    0.0000

     End of self-consistent calculation

 ------ SPIN UP ------------

[...]

 ------ SPIN DOWN ----------

          k = 0.0000 0.0000 0.0000 ( 16212 PWs)   bands (ev):

   -28.6412 -25.5854 -25.2984 -24.4990 -23.7163 -22.8361 -22.7762 -22.6364
   -19.5762 -19.0316 -17.1808 -17.0000 -16.9104 -15.4717 -15.2621 -13.8024
   -13.7728 -12.6888 -11.8925 -11.7222 -11.5191 -11.3402 -11.0792 -10.8255
   -10.7943 -10.5438 -10.4257 -10.2719 -10.0863 -10.0202  -9.7733  -9.7572
    -9.6131  -9.5471  -9.5265  -9.4091  -9.0377  -8.4022  -8.3234  -8.2607
    -7.9930  -7.7240  -7.6684  -7.5721  -6.8800  -6.7537  -6.1706  -6.0570
    -5.9742  -5.8906  -5.6477  -5.4383  -5.2559  -5.0892  -4.8544  -4.5814
    -4.0028  -3.7962  -2.6051  -2.2969  -2.0991  -1.4259  -1.2764  -0.7719
     0.0163   0.1252   0.5780   0.6700   0.8369   0.9175   1.0598

     the Fermi energy is    -3.4267 ev

!    total energy              =    -466.93340538 Ry
     Harris-Foulkes estimate   =    -466.93340535 Ry
     estimated scf accuracy    <          8.2E-09 Ry

     The total energy is the sum of the following terms:

     one-electron contribution =   -1791.85250180 Ry
     hartree contribution      =     921.79571719 Ry
     xc contribution           =    -137.94117151 Ry
     ewald contribution        =     541.11825252 Ry
     DFT-D3 Dispersion         =      -0.05400029 Ry
     smearing contrib. (-TS)   =       0.00029852 Ry

     total magnetization       =     2.00 Bohr mag/cell
     absolute magnetization    =     2.29 Bohr mag/cell

     convergence has been achieved in  10 iterations

     Forces acting on atoms (cartesian axes, Ry/au):

     atom    1 type  3   force =    -0.00045228    0.00010825   -0.00071706
     atom    2 type  3   force =    -0.00012130    0.00062089    0.00047816
     atom    3 type  3   force =     0.00060996   -0.00058067   -0.00006533
     atom    4 type  3   force =    -0.00038406   -0.00015212   -0.00047444
     atom    5 type  1   force =    -0.00008207   -0.00029600    0.00037379
     atom    6 type  1   force =    -0.00030361    0.00048142    0.00003690
     atom    7 type  4   force =     0.00006824   -0.00026569   -0.00036689
     atom    8 type  1   force =    -0.00036398    0.00028122   -0.00030398
     atom    9 type  5   force =    -0.00025260    0.00004168    0.00042637
     atom   10 type  3   force =    -0.00028410   -0.00036927   -0.00003635
     atom   11 type  3   force =     0.00014748   -0.00049088   -0.00022210
     atom   12 type  1   force =     0.00071731    0.00005140    0.00028406
     atom   13 type  5   force =     0.00032086    0.00011366   -0.00010053
     atom   14 type  1   force =    -0.00032999   -0.00054603   -0.00033245
     atom   15 type  3   force =     0.00047402    0.00017829    0.00064897
     atom   16 type  2   force =    -0.00039878   -0.00017229   -0.00042496
     atom   17 type  4   force =     0.00062458    0.00013143    0.00038315
     atom   18 type  1   force =    -0.00021287   -0.00004491    0.00033139
     atom   19 type  1   force =    -0.00008262    0.00031465   -0.00046810
     atom   20 type  1   force =    -0.00021052    0.00053657    0.00074195
     atom   21 type  1   force =     0.00003819    0.00005787   -0.00040173
     atom   22 type  3   force =    -0.00031738   -0.00028522   -0.00026606
     atom   23 type  1   force =     0.00043468   -0.00000909    0.00006014
     atom   24 type  3   force =    -0.00052388    0.00021464    0.00069355
     atom   25 type  3   force =     0.00036115    0.00010069   -0.00018663
     atom   26 type  3   force =     0.00000349    0.00027225    0.00052212
     atom   27 type  3   force =     0.00006130   -0.00026105    0.00045427
     atom   28 type  4   force =    -0.00003758    0.00067335    0.00056040
     atom   29 type  1   force =    -0.00028347    0.00035287   -0.00001236
     atom   30 type  3   force =    -0.00015449   -0.00030618   -0.00041052
     atom   31 type  5   force =     0.00010041   -0.00027204   -0.00010334
     atom   32 type  5   force =    -0.00036266   -0.00020204   -0.00020474
     atom   33 type  5   force =     0.00083555   -0.00003659   -0.00015758
     atom   34 type  5   force =    -0.00029642    0.00048000   -0.00051107
     atom   35 type  3   force =     0.00065743   -0.00072108   -0.00022900

     Total force =     0.003823     Total SCF correction =     0.000107

     bfgs converged in 134 scf cycles and 132 bfgs steps
     (criteria: energy <  1.0E-04 Ry, force <  1.0E-03 Ry/Bohr)

     End of BFGS Geometry Optimization

     Final energy   =    -466.9334053773 Ry
Begin final coordinates

ATOMIC_POSITIONS (crystal)
H             0.2198568600        0.4085154499        0.4027083979
H             0.1394467908        0.5326916986        0.3780564691
H             0.2403179121        0.6895818269        0.3750456305
H             0.3585717481        0.8715588687        0.3837489708
C             0.1920675781        0.4880008628        0.4381914640
C             0.3021392397        0.6523683485        0.4309348316
N             0.2896749367        0.5523505414        0.4688176518
C             0.4172729991        0.8275965784        0.4372191427
O             0.5667270544        0.4596710944        0.4765188257
H             0.5278147706        0.9676339396        0.4594403110
H             0.2938167534        0.1378887615        0.5052967960
C             0.3984672037        0.7162401166        0.4658088907
O             0.3797595826        0.3339353470        0.5051963784
C             0.5113089449        0.8806041550        0.4794746746
H             0.1449322917        0.4697403888        0.5144697543
Co            0.4011201952        0.4915316410        0.5672792838
N             0.4691345995        0.6593546723        0.5323014762
C             0.5836599036        0.8209705561        0.5481318909
C             0.5944901011        0.4237395808        0.5714593079
C             0.5592928039        0.7100219868        0.5726014671
C             0.2887224165        0.1755267705        0.5883250620
H             0.6579612791        0.8596324138        0.5830306607
C             0.3158112497        0.2978786846        0.5839571928
H             0.7667015900        0.3979005287        0.5314415854
H             0.2059301313        0.1626904682        0.6246383270
H             0.6959264058        0.2793419133        0.5855508209
H             0.6122440249        0.6601187768        0.6269355751
N             0.3466405799        0.5805545094        0.7005811974
C             0.7053898883        0.3701466629        0.5931305956
H             0.3499483728        0.1344094744        0.6426967423
O             0.5242427372        0.4320631152        0.6529356022
O             0.4146821423        0.6053768928        0.7734559959
O             0.2792677510        0.3648491162        0.6559686537
O             0.2465682442        0.6053198368        0.7019978978
H             0.7338309182        0.3887044210        0.6779124764
End final coordinates

     Writing output data file ./tmp/NO2.save/

     General routines

     Parallel routines

   This run was terminated on:  19:39:23   7Jul2021

   JOB DONE.